(declare-fun temp136013_1 () (_ BitVec 64))
(declare-fun temp136013_2 () (_ BitVec 64))
(declare-fun var77740 () (_ BitVec 64))
(declare-fun k!0 () Bool)
(declare-fun ARGNAME_filter_NAMEEND_DIM () (_ BitVec 64))
(declare-fun ARGNAME_data_format_NAMEEND_STRFMT () (_ BitVec 64))
(declare-fun temp136013_3 () (_ BitVec 64))
(declare-fun ARGNAME_out_backprop_NAMEEND_DIM () (_ BitVec 64))
(declare-fun var77770 () (_ BitVec 64))
(declare-fun temp136013_4 () (_ BitVec 64))
(declare-fun temp136013_5 () (_ BitVec 64))
(declare-fun ARGNAME_filter_NAMEEND_DIMSIZE
             ()
             (Array (_ BitVec 64) (_ BitVec 64)))
(declare-fun temp136013_6 () (_ BitVec 64))
(declare-fun temp136013_7 () (_ BitVec 64))
(declare-fun temp136013_8 () (_ BitVec 64))
(declare-fun temp136013_9 () (_ BitVec 64))
(declare-fun temp136013_10 () (_ BitVec 64))
(declare-fun temp136013_11 () (_ BitVec 64))
(declare-fun temp136013_12 () (_ BitVec 64))
(declare-fun temp136013_13 () (_ BitVec 64))
(declare-fun temp136013_14 () (_ BitVec 64))
(declare-fun temp136013_15 () (_ BitVec 64))
(declare-fun temp136013_16 () (_ BitVec 64))
(declare-fun temp136013_17 () (_ BitVec 64))
(declare-fun temp136013_18 () (_ BitVec 64))
(declare-fun var77799 () (_ BitVec 64))
(declare-fun temp136013_19 () (_ BitVec 64))
(declare-fun ARGNAME_out_backprop_NAMEEND_DIMSIZE
             ()
             (Array (_ BitVec 64) (_ BitVec 64)))
(declare-fun temp136013_20 () (_ BitVec 64))
(declare-fun temp136013_21 () (_ BitVec 64))
(declare-fun temp136013_22 () (_ BitVec 64))
(declare-fun temp136013_23 () (_ BitVec 64))
(declare-fun temp136013_24 () (_ BitVec 64))
(declare-fun temp136013_25 () (_ BitVec 64))
(declare-fun temp136013_26 () (_ BitVec 64))
(declare-fun temp136013_27 () (_ BitVec 64))
(declare-fun temp136013_28 () (_ BitVec 64))
(declare-fun temp136013_29 () (_ BitVec 64))
(declare-fun temp136013_30 () (_ BitVec 64))
(declare-fun temp136013_31 () (_ BitVec 64))
(declare-fun temp136013_32 () (_ BitVec 64))
(declare-fun var77832 () (_ BitVec 64))
(declare-fun temp136013_33 () (_ BitVec 64))
(declare-fun temp136013_34 () (_ BitVec 64))
(declare-fun var77833 () (_ BitVec 64))
(declare-fun var77834 () (_ BitVec 64))
(declare-fun temp136013_35 () (_ BitVec 64))
(declare-fun temp136013_36 () (_ BitVec 64))
(declare-fun var275510 () (_ BitVec 64))
(declare-fun temp136013_37 () (_ BitVec 64))
(declare-fun var275528 () (_ BitVec 64))
(declare-fun temp136013_38 () (_ BitVec 64))
(declare-fun temp136013_40 () (_ BitVec 64))
(declare-fun temp136013_39 () (_ BitVec 64))
(declare-fun temp136013_42 () (_ BitVec 64))
(declare-fun temp136013_41 () (_ BitVec 64))
(declare-fun temp136013_43 () (_ BitVec 64))
(declare-fun var406582 () (_ BitVec 64))
(declare-fun temp136013_44 () (_ BitVec 64))
(declare-fun var406600 () (_ BitVec 64))
(declare-fun temp136013_45 () (_ BitVec 64))
(declare-fun temp136013_46 () (_ BitVec 64))
(declare-fun var537654 () (_ BitVec 64))
(declare-fun temp136013_47 () (_ BitVec 64))
(declare-fun var537672 () (_ BitVec 64))
(declare-fun temp136013_48 () (_ BitVec 64))
(declare-fun temp136013_50 () (_ BitVec 64))
(declare-fun temp136013_49 () (_ BitVec 64))
(declare-fun temp136013_52 () (_ BitVec 64))
(declare-fun temp136013_51 () (_ BitVec 64))
(declare-fun temp136013_54 () (_ BitVec 64))
(declare-fun temp136013_53 () (_ BitVec 64))
(declare-fun temp136013_56 () (_ BitVec 64))
(declare-fun temp136013_55 () (_ BitVec 64))
(declare-fun temp136013_57 () (_ BitVec 64))
(declare-fun var795723 () (_ BitVec 64))
(declare-fun var795702 () (_ BitVec 64))
(declare-fun var730134 () (_ BitVec 64))
(declare-fun temp136013_58 () (_ BitVec 64))
(declare-fun temp136013_59 () (_ BitVec 64))
(declare-fun var861259 () (_ BitVec 64))
(declare-fun var861238 () (_ BitVec 64))
(declare-fun var730144 () (_ BitVec 64))
(declare-fun temp136013_60 () (_ BitVec 64))
(declare-fun temp136013_61 () (_ BitVec 64))
(declare-fun var1123378 () (_ BitVec 64))
(declare-fun temp136013_62 () (_ BitVec 64))
(declare-fun var1188914 () (_ BitVec 64))
(declare-fun temp136013_63 () (_ BitVec 64))
(declare-fun var1254450 () (_ BitVec 64))
(declare-fun temp136013_64 () (_ BitVec 64))
(declare-fun var78184 () (_ BitVec 64))
(declare-fun temp136013_66 () (_ BitVec 64))
(declare-fun temp136013_65 () (_ BitVec 64))
(declare-fun temp136013_68 () (_ BitVec 64))
(declare-fun temp136013_67 () (_ BitVec 64))
(assert (or (= ARGNAME_data_format_NAMEEND_STRFMT #x0000000000000000)
    (= ARGNAME_data_format_NAMEEND_STRFMT #x0000000000000001)
    (= ARGNAME_data_format_NAMEEND_STRFMT #x0000000000000002)
    (= ARGNAME_data_format_NAMEEND_STRFMT #x0000000000000003)
    (= ARGNAME_data_format_NAMEEND_STRFMT #x0000000000000004)
    (= ARGNAME_data_format_NAMEEND_STRFMT #x0000000000000005)))
(assert (= temp136013_1 #x0000000000000005))
(assert (= var77740
   (ite (= ARGNAME_filter_NAMEEND_DIM temp136013_1)
        #x0000000000000001
        #x0000000000000000)))
(assert (= temp136013_2 #x0000000000000001))
(assert (= var77740 temp136013_2))
(assert (= temp136013_3 #x0000000000000005))
(assert (= var77770
   (ite (= ARGNAME_out_backprop_NAMEEND_DIM temp136013_3)
        #x0000000000000001
        #x0000000000000000)))
(assert (= temp136013_4 #x0000000000000001))
(assert (= var77770 temp136013_4))
(assert (= temp136013_5 #x0000000000000000))
(assert (= temp136013_6 (select ARGNAME_filter_NAMEEND_DIMSIZE temp136013_5)))
(assert (= temp136013_7 #x0000000000000001))
(assert (= temp136013_8 (select ARGNAME_filter_NAMEEND_DIMSIZE temp136013_7)))
(assert (= temp136013_9 #x0000000000000002))
(assert (= temp136013_10 (select ARGNAME_filter_NAMEEND_DIMSIZE temp136013_9)))
(assert (= temp136013_11 #x0000000000000003))
(assert (= temp136013_12 (select ARGNAME_filter_NAMEEND_DIMSIZE temp136013_11)))
(assert (= temp136013_13 #x0000000000000004))
(assert (= temp136013_14 (select ARGNAME_filter_NAMEEND_DIMSIZE temp136013_13)))
(assert (= temp136013_15 #x0000000000000005))
(assert (= temp136013_16 (select ARGNAME_filter_NAMEEND_DIMSIZE temp136013_15)))
(assert (= temp136013_17 #x0000000000000003))
(assert (= temp136013_18 (select ARGNAME_filter_NAMEEND_DIMSIZE temp136013_17)))
(assert (= var77799 temp136013_18))
(assert (= temp136013_19 #x0000000000000000))
(assert (= temp136013_20 (select ARGNAME_out_backprop_NAMEEND_DIMSIZE temp136013_19)))
(assert (= temp136013_21 #x0000000000000001))
(assert (= temp136013_22 (select ARGNAME_out_backprop_NAMEEND_DIMSIZE temp136013_21)))
(assert (= temp136013_23 #x0000000000000002))
(assert (= temp136013_24 (select ARGNAME_out_backprop_NAMEEND_DIMSIZE temp136013_23)))
(assert (= temp136013_25 #x0000000000000003))
(assert (= temp136013_26 (select ARGNAME_out_backprop_NAMEEND_DIMSIZE temp136013_25)))
(assert (= temp136013_27 #x0000000000000004))
(assert (= temp136013_28 (select ARGNAME_out_backprop_NAMEEND_DIMSIZE temp136013_27)))
(assert (= temp136013_29 #x0000000000000005))
(assert (= temp136013_30 (select ARGNAME_out_backprop_NAMEEND_DIMSIZE temp136013_29)))
(assert (= temp136013_31 #x0000000000000004))
(assert (= temp136013_32 (select ARGNAME_out_backprop_NAMEEND_DIMSIZE temp136013_31)))
(assert (= var77832 temp136013_32))
(assert (= temp136013_33 #x0000000000000004))
(assert (= temp136013_34 (select ARGNAME_filter_NAMEEND_DIMSIZE temp136013_33)))
(assert (= var77833 temp136013_34))
(assert (= var77834 (ite (= var77832 var77833) #x0000000000000001 #x0000000000000000)))
(assert (= temp136013_35 #x0000000000000001))
(assert (= var77834 temp136013_35))
(assert (= temp136013_36 #x0000000000000001))
(assert (= var275510 temp136013_36))
(assert (= temp136013_37 #x0000000000000001))
(assert (= var275528
   (ite (bvslt var275510 temp136013_37) #x0000000000000001 #x0000000000000000)))
(assert (= temp136013_38 #x0000000000000000))
(assert (= var275528 temp136013_38))
(assert (= temp136013_40 #x0000000000000000))
(assert (= temp136013_39 temp136013_40))
(assert (= temp136013_42 #x0000000000000000))
(assert (= temp136013_41 temp136013_42))
(assert (= temp136013_43 #x0000000000000001))
(assert (= var406582 temp136013_43))
(assert (= temp136013_44 #x0000000000000001))
(assert (= var406600
   (ite (bvslt var406582 temp136013_44) #x0000000000000001 #x0000000000000000)))
(assert (= temp136013_45 #x0000000000000000))
(assert (= var406600 temp136013_45))
(assert (= temp136013_46 #x0000000000000001))
(assert (= var537654 temp136013_46))
(assert (= temp136013_47 #x0000000000000001))
(assert (= var537672
   (ite (bvslt var537654 temp136013_47) #x0000000000000001 #x0000000000000000)))
(assert (= temp136013_48 #x0000000000000000))
(assert (= var537672 temp136013_48))
(assert (= temp136013_50 #x0000000000000000))
(assert (= temp136013_49 temp136013_50))
(assert (= temp136013_52 #x00000000000000ff))
(assert (= temp136013_51 temp136013_52))
(assert (= temp136013_54 #x00000000000000ff))
(assert (= temp136013_53 temp136013_54))
(assert (= temp136013_56 #x00000000000000ff))
(assert (= temp136013_55 temp136013_56))
(assert (= temp136013_57 #x0000000000000000))
(assert (= var795723 temp136013_57))
(assert (= var795702 var795723))
(assert (= var730134 var795702))
(assert (= temp136013_58 #x0000000000000000))
(assert (= var730134 temp136013_58))
(assert (= temp136013_59 #x0000000000000000))
(assert (= var861259 temp136013_59))
(assert (= var861238 var861259))
(assert (= var730144 var861238))
(assert (= temp136013_60 #x0000000000000000))
(assert (= var730144 temp136013_60))
(assert (= temp136013_61 #x0000000000008000))
(assert (= var1123378 temp136013_61))
(assert (= temp136013_62 #x0000000000040000))
(assert (= var1188914 temp136013_62))
(assert (= temp136013_63 #x0000000000200000))
(assert (= var1254450 temp136013_63))
(assert (= temp136013_64 #x0000000000000001))
(assert (= var78184 temp136013_64))
(assert (= temp136013_66 #x0000000000000001))
(assert (= temp136013_65 temp136013_66))
(assert (= temp136013_68 #x0000000000000001))
(assert (= temp136013_67 temp136013_68))
(model-add temp136013_1 () (_ BitVec 64) #x0000000000000005)
(model-add temp136013_2 () (_ BitVec 64) #x0000000000000001)
(model-add var77740 () (_ BitVec 64) #x0000000000000001)
(model-del k!0)
(model-add ARGNAME_filter_NAMEEND_DIM
           ()
           (_ BitVec 64)
           (ite k!0 #x0000000000000005 (bvnot #x0000000000000005)))


